\* ./result/iris/relu-encoding *\
Minimize
OBJ: __dummy
Subject To
_C1: s_0_0 - 0.234237462282 x_0_0 - x_0_1 - 0.108200438321 x_1_0
 + 0.225248932838 x_2_0 + 1.0208773613 x_3_0 = -0.952303826809
_C10: x_1_1 + 1.62620806694 z_1_0 <= 1.62620806694
_C11: x_2_1 + 1.62620806694 z_2_0 <= 1.62620806694
_C12: x_3_1 + 1.62620806694 z_3_0 <= 1.62620806694
_C13: x_4_1 + 1.62620806694 z_4_0 <= 1.62620806694
_C14: x_0_2 + 1.62620806694 z_0_1 <= 1.62620806694
_C15: x_1_2 + 1.62620806694 z_1_1 <= 1.62620806694
_C16: x_2_2 + 1.62620806694 z_2_1 <= 1.62620806694
_C17: s_0_0 - 1.62620806694 z_0_0 <= 0
_C18: s_1_0 - 1.62620806694 z_1_0 <= 0
_C19: s_2_0 - 1.62620806694 z_2_0 <= 0
_C2: s_1_0 - 0.158022895455 x_0_0 + 0.093827791512 x_1_0 - x_1_1
 + 0.42836239934 x_2_0 - 0.343273222446 x_3_0 = -0.713121592999
_C20: s_3_0 - 1.62620806694 z_3_0 <= 0
_C21: s_4_0 - 1.62620806694 z_4_0 <= 0
_C22: s_0_1 - 1.62620806694 z_0_1 <= 0
_C23: s_1_1 - 1.62620806694 z_1_1 <= 0
_C24: s_2_1 - 1.62620806694 z_2_1 <= 0
_C3: s_2_0 + 0.412917166948 x_0_0 - 0.198573380709 x_1_0
 + 0.0611221194267 x_2_0 - x_2_1 + 0.153101325035 x_3_0 = -0.612663090229
_C4: s_3_0 - 0.185212150216 x_0_0 - 0.199266806245 x_1_0
 + 0.740647315979 x_2_0 + 1.24167299271 x_3_0 - x_3_1 = 0.560138165951
_C5: s_4_0 - 0.312782168388 x_0_0 + 0.300172805786 x_1_0
 - 0.0589074082673 x_2_0 + 0.651150822639 x_3_0 - x_4_1 = 0.379965186119
_C6: s_0_1 - 0.95420974493 x_0_1 - x_0_2 + 0.628861188889 x_1_1
 - 0.252824962139 x_2_1 - 0.328521072865 x_3_1 - 0.673052072525 x_4_1
 = -0.479398131371
_C7: s_1_1 + 0.778110802174 x_0_1 - 0.181339234114 x_1_1 - x_1_2
 + 0.192061752081 x_2_1 - 1.60140705109 x_3_1 + 0.836924374104 x_4_1
 = -0.147256523371
_C8: s_2_1 + 0.0826795250177 x_0_1 + 0.499127328396 x_1_1
 - 0.00767660699785 x_2_1 - x_2_2 + 0.694647192955 x_3_1
 - 0.776081562042 x_4_1 = 0.455841302872
_C9: x_0_1 + 1.62620806694 z_0_0 <= 1.62620806694
Bounds
__dummy = 0
x_0_0 free
x_1_0 free
x_2_0 free
x_3_0 free
Binaries
z_0_0
z_0_1
z_1_0
z_1_1
z_2_0
z_2_1
z_3_0
z_4_0
End
